p cnf 4321 1154
c ind 1 2 3 4 5 6 7 8 9 10 11 12 13 14 15 16 17 18 19 20 21 22 23 24 25 26 27 28 29 30 31 32 33 34 35 36 37 38 39 40 41 42 43 44 45 46 47 48 49 50 51 52 53 54 55 56 57 58 59 60 61 62 63 64 0
-5 -1 0
-9 -1 0
-13 -1 0
-1 -5 0
-9 -5 0
-13 -5 0
-1 -9 0
-5 -9 0
-13 -9 0
-1 -13 0
-5 -13 0
-9 -13 0
-21 -17 0
-25 -17 0
-29 -17 0
-17 -21 0
-25 -21 0
-29 -21 0
-17 -25 0
-21 -25 0
-29 -25 0
-17 -29 0
-21 -29 0
-25 -29 0
-37 -33 0
-41 -33 0
-45 -33 0
-33 -37 0
-41 -37 0
-45 -37 0
-33 -41 0
-37 -41 0
-45 -41 0
-33 -45 0
-37 -45 0
-41 -45 0
-53 -49 0
-57 -49 0
-61 -49 0
-49 -53 0
-57 -53 0
-61 -53 0
-49 -57 0
-53 -57 0
-61 -57 0
-49 -61 0
-53 -61 0
-57 -61 0
-6 -2 0
-10 -2 0
-14 -2 0
-2 -6 0
-10 -6 0
-14 -6 0
-2 -10 0
-6 -10 0
-14 -10 0
-2 -14 0
-6 -14 0
-10 -14 0
-22 -18 0
-26 -18 0
-30 -18 0
-18 -22 0
-26 -22 0
-30 -22 0
-18 -26 0
-22 -26 0
-30 -26 0
-18 -30 0
-22 -30 0
-26 -30 0
-38 -34 0
-42 -34 0
-46 -34 0
-34 -38 0
-42 -38 0
-46 -38 0
-34 -42 0
-38 -42 0
-46 -42 0
-34 -46 0
-38 -46 0
-42 -46 0
-54 -50 0
-58 -50 0
-62 -50 0
-50 -54 0
-58 -54 0
-62 -54 0
-50 -58 0
-54 -58 0
-62 -58 0
-50 -62 0
-54 -62 0
-58 -62 0
-7 -3 0
-11 -3 0
-15 -3 0
-3 -7 0
-11 -7 0
-15 -7 0
-3 -11 0
-7 -11 0
-15 -11 0
-3 -15 0
-7 -15 0
-11 -15 0
-23 -19 0
-27 -19 0
-31 -19 0
-19 -23 0
-27 -23 0
-31 -23 0
-19 -27 0
-23 -27 0
-31 -27 0
-19 -31 0
-23 -31 0
-27 -31 0
-39 -35 0
-43 -35 0
-47 -35 0
-35 -39 0
-43 -39 0
-47 -39 0
-35 -43 0
-39 -43 0
-47 -43 0
-35 -47 0
-39 -47 0
-43 -47 0
-55 -51 0
-59 -51 0
-63 -51 0
-51 -55 0
-59 -55 0
-63 -55 0
-51 -59 0
-55 -59 0
-63 -59 0
-51 -63 0
-55 -63 0
-59 -63 0
-8 -4 0
-12 -4 0
-16 -4 0
-4 -8 0
-12 -8 0
-16 -8 0
-4 -12 0
-8 -12 0
-16 -12 0
-4 -16 0
-8 -16 0
-12 -16 0
-24 -20 0
-28 -20 0
-32 -20 0
-20 -24 0
-28 -24 0
-32 -24 0
-20 -28 0
-24 -28 0
-32 -28 0
-20 -32 0
-24 -32 0
-28 -32 0
-40 -36 0
-44 -36 0
-48 -36 0
-36 -40 0
-44 -40 0
-48 -40 0
-36 -44 0
-40 -44 0
-48 -44 0
-36 -48 0
-40 -48 0
-44 -48 0
-56 -52 0
-60 -52 0
-64 -52 0
-52 -56 0
-60 -56 0
-64 -56 0
-52 -60 0
-56 -60 0
-64 -60 0
-52 -64 0
-56 -64 0
-60 -64 0
-17 -1 0
-33 -1 0
-49 -1 0
-1 -17 0
-33 -17 0
-49 -17 0
-1 -33 0
-17 -33 0
-49 -33 0
-1 -49 0
-17 -49 0
-33 -49 0
-21 -5 0
-37 -5 0
-53 -5 0
-5 -21 0
-37 -21 0
-53 -21 0
-5 -37 0
-21 -37 0
-53 -37 0
-5 -53 0
-21 -53 0
-37 -53 0
-25 -9 0
-41 -9 0
-57 -9 0
-9 -25 0
-41 -25 0
-57 -25 0
-9 -41 0
-25 -41 0
-57 -41 0
-9 -57 0
-25 -57 0
-41 -57 0
-29 -13 0
-45 -13 0
-61 -13 0
-13 -29 0
-45 -29 0
-61 -29 0
-13 -45 0
-29 -45 0
-61 -45 0
-13 -61 0
-29 -61 0
-45 -61 0
-18 -2 0
-34 -2 0
-50 -2 0
-2 -18 0
-34 -18 0
-50 -18 0
-2 -34 0
-18 -34 0
-50 -34 0
-2 -50 0
-18 -50 0
-34 -50 0
-22 -6 0
-38 -6 0
-54 -6 0
-6 -22 0
-38 -22 0
-54 -22 0
-6 -38 0
-22 -38 0
-54 -38 0
-6 -54 0
-22 -54 0
-38 -54 0
-26 -10 0
-42 -10 0
-58 -10 0
-10 -26 0
-42 -26 0
-58 -26 0
-10 -42 0
-26 -42 0
-58 -42 0
-10 -58 0
-26 -58 0
-42 -58 0
-30 -14 0
-46 -14 0
-62 -14 0
-14 -30 0
-46 -30 0
-62 -30 0
-14 -46 0
-30 -46 0
-62 -46 0
-14 -62 0
-30 -62 0
-46 -62 0
-19 -3 0
-35 -3 0
-51 -3 0
-3 -19 0
-35 -19 0
-51 -19 0
-3 -35 0
-19 -35 0
-51 -35 0
-3 -51 0
-19 -51 0
-35 -51 0
-23 -7 0
-39 -7 0
-55 -7 0
-7 -23 0
-39 -23 0
-55 -23 0
-7 -39 0
-23 -39 0
-55 -39 0
-7 -55 0
-23 -55 0
-39 -55 0
-27 -11 0
-43 -11 0
-59 -11 0
-11 -27 0
-43 -27 0
-59 -27 0
-11 -43 0
-27 -43 0
-59 -43 0
-11 -59 0
-27 -59 0
-43 -59 0
-31 -15 0
-47 -15 0
-63 -15 0
-15 -31 0
-47 -31 0
-63 -31 0
-15 -47 0
-31 -47 0
-63 -47 0
-15 -63 0
-31 -63 0
-47 -63 0
-20 -4 0
-36 -4 0
-52 -4 0
-4 -20 0
-36 -20 0
-52 -20 0
-4 -36 0
-20 -36 0
-52 -36 0
-4 -52 0
-20 -52 0
-36 -52 0
-24 -8 0
-40 -8 0
-56 -8 0
-8 -24 0
-40 -24 0
-56 -24 0
-8 -40 0
-24 -40 0
-56 -40 0
-8 -56 0
-24 -56 0
-40 -56 0
-28 -12 0
-44 -12 0
-60 -12 0
-12 -28 0
-44 -28 0
-60 -28 0
-12 -44 0
-28 -44 0
-60 -44 0
-12 -60 0
-28 -60 0
-44 -60 0
-32 -16 0
-48 -16 0
-64 -16 0
-16 -32 0
-48 -32 0
-64 -32 0
-16 -48 0
-32 -48 0
-64 -48 0
-16 -64 0
-32 -64 0
-48 -64 0
-65 1 0
-65 6 0
-65 11 0
-65 16 0
-66 17 0
-66 22 0
-66 27 0
-66 32 0
-67 33 0
-67 38 0
-67 43 0
-67 48 0
-68 49 0
-68 54 0
-68 59 0
-68 64 0
-65 1 0
-65 18 0
-65 35 0
-65 52 0
-66 5 0
-66 22 0
-66 39 0
-66 56 0
-67 9 0
-67 26 0
-67 43 0
-67 60 0
-68 13 0
-68 30 0
-68 47 0
-68 64 0
1 2 3 4 0
-1 -2 0
-1 -3 0
-1 -4 0
-2 -3 0
-2 -4 0
-3 -4 0
5 6 7 8 0
-5 -6 0
-5 -7 0
-5 -8 0
-6 -7 0
-6 -8 0
-7 -8 0
9 10 11 12 0
-9 -10 0
-9 -11 0
-9 -12 0
-10 -11 0
-10 -12 0
-11 -12 0
13 14 15 16 0
-13 -14 0
-13 -15 0
-13 -16 0
-14 -15 0
-14 -16 0
-15 -16 0
17 18 19 20 0
-17 -18 0
-17 -19 0
-17 -20 0
-18 -19 0
-18 -20 0
-19 -20 0
21 22 23 24 0
-21 -22 0
-21 -23 0
-21 -24 0
-22 -23 0
-22 -24 0
-23 -24 0
25 26 27 28 0
-25 -26 0
-25 -27 0
-25 -28 0
-26 -27 0
-26 -28 0
-27 -28 0
29 30 31 32 0
-29 -30 0
-29 -31 0
-29 -32 0
-30 -31 0
-30 -32 0
-31 -32 0
33 34 35 36 0
-33 -34 0
-33 -35 0
-33 -36 0
-34 -35 0
-34 -36 0
-35 -36 0
37 38 39 40 0
-37 -38 0
-37 -39 0
-37 -40 0
-38 -39 0
-38 -40 0
-39 -40 0
41 42 43 44 0
-41 -42 0
-41 -43 0
-41 -44 0
-42 -43 0
-42 -44 0
-43 -44 0
45 46 47 48 0
-45 -46 0
-45 -47 0
-45 -48 0
-46 -47 0
-46 -48 0
-47 -48 0
49 50 51 52 0
-49 -50 0
-49 -51 0
-49 -52 0
-50 -51 0
-50 -52 0
-51 -52 0
53 54 55 56 0
-53 -54 0
-53 -55 0
-53 -56 0
-54 -55 0
-54 -56 0
-55 -56 0
57 58 59 60 0
-57 -58 0
-57 -59 0
-57 -60 0
-58 -59 0
-58 -60 0
-59 -60 0
61 62 63 64 0
-61 -62 0
-61 -63 0
-61 -64 0
-62 -63 0
-62 -64 0
-63 -64 0
65 66 67 68 0
-65 -66 0
-65 -67 0
-65 -68 0
-66 -67 0
-66 -68 0
-67 -68 0
65 0
-4275 2 0
-4276 1 0
4275 4276 0
4275 4277 0
-4277 4278 4279 0
-4277 4278 4280 0
-4280 4281 4282 0
-4280 4281 4283 0
-4283 4284 4285 0
-4283 4284 4286 0
-4286 4287 4288 0
-4286 4287 4289 0
-4289 4290 4291 0
-4289 4290 4292 0
-4292 4293 4294 0
-4292 4293 4295 0
-4295 4296 4297 0
-4295 4296 4298 0
-4298 4299 4300 0
-4298 4299 4301 0
-4301 4302 4303 0
-4301 4302 4304 0
-4304 4305 4306 0
-4304 4305 4307 0
-4307 4308 4309 0
-4307 4308 4310 0
-4310 4311 4312 0
-4310 4311 4313 0
-4313 4314 4315 0
-4313 4314 4316 0
-4316 4317 4318 0
-4316 4317 4319 0
-4319 4320 4321 0
-4278 -5 10 11 12 0
-4278 -6 10 12 0
-4278 -7 10 0
-4278 -8 0
-4279 -5 9 0
-4279 -6 11 0
-4279 -7 12 0
-4279 -8 10 0
4275 4276 0
4275 4277 0
-4277 4278 4279 0
-4277 4278 4280 0
-4280 4281 4282 0
-4280 4281 4283 0
-4283 4284 4285 0
-4283 4284 4286 0
-4286 4287 4288 0
-4286 4287 4289 0
-4289 4290 4291 0
-4289 4290 4292 0
-4292 4293 4294 0
-4292 4293 4295 0
-4295 4296 4297 0
-4295 4296 4298 0
-4298 4299 4300 0
-4298 4299 4301 0
-4301 4302 4303 0
-4301 4302 4304 0
-4304 4305 4306 0
-4304 4305 4307 0
-4307 4308 4309 0
-4307 4308 4310 0
-4310 4311 4312 0
-4310 4311 4313 0
-4313 4314 4315 0
-4313 4314 4316 0
-4316 4317 4318 0
-4316 4317 4319 0
-4319 4320 4321 0
-4281 -9 14 15 16 0
-4281 -10 14 16 0
-4281 -11 14 0
-4281 -12 0
-4282 -9 13 0
-4282 -10 15 0
-4282 -11 16 0
-4282 -12 14 0
4275 4276 0
4275 4277 0
-4277 4278 4279 0
-4277 4278 4280 0
-4280 4281 4282 0
-4280 4281 4283 0
-4283 4284 4285 0
-4283 4284 4286 0
-4286 4287 4288 0
-4286 4287 4289 0
-4289 4290 4291 0
-4289 4290 4292 0
-4292 4293 4294 0
-4292 4293 4295 0
-4295 4296 4297 0
-4295 4296 4298 0
-4298 4299 4300 0
-4298 4299 4301 0
-4301 4302 4303 0
-4301 4302 4304 0
-4304 4305 4306 0
-4304 4305 4307 0
-4307 4308 4309 0
-4307 4308 4310 0
-4310 4311 4312 0
-4310 4311 4313 0
-4313 4314 4315 0
-4313 4314 4316 0
-4316 4317 4318 0
-4316 4317 4319 0
-4319 4320 4321 0
-4284 -13 6 7 8 0
-4284 -14 6 8 0
-4284 -15 6 0
-4284 -16 0
-4285 -13 5 0
-4285 -14 7 0
-4285 -15 8 0
-4285 -16 6 0
4275 4276 0
4275 4277 0
-4277 4278 4279 0
-4277 4278 4280 0
-4280 4281 4282 0
-4280 4281 4283 0
-4283 4284 4285 0
-4283 4284 4286 0
-4286 4287 4288 0
-4286 4287 4289 0
-4289 4290 4291 0
-4289 4290 4292 0
-4292 4293 4294 0
-4292 4293 4295 0
-4295 4296 4297 0
-4295 4296 4298 0
-4298 4299 4300 0
-4298 4299 4301 0
-4301 4302 4303 0
-4301 4302 4304 0
-4304 4305 4306 0
-4304 4305 4307 0
-4307 4308 4309 0
-4307 4308 4310 0
-4310 4311 4312 0
-4310 4311 4313 0
-4313 4314 4315 0
-4313 4314 4316 0
-4316 4317 4318 0
-4316 4317 4319 0
-4319 4320 4321 0
-4287 -17 34 35 36 0
-4287 -18 34 36 0
-4287 -19 34 0
-4287 -20 0
-4288 -17 33 0
-4288 -18 35 0
-4288 -19 36 0
-4288 -20 34 0
4275 4276 0
4275 4277 0
-4277 4278 4279 0
-4277 4278 4280 0
-4280 4281 4282 0
-4280 4281 4283 0
-4283 4284 4285 0
-4283 4284 4286 0
-4286 4287 4288 0
-4286 4287 4289 0
-4289 4290 4291 0
-4289 4290 4292 0
-4292 4293 4294 0
-4292 4293 4295 0
-4295 4296 4297 0
-4295 4296 4298 0
-4298 4299 4300 0
-4298 4299 4301 0
-4301 4302 4303 0
-4301 4302 4304 0
-4304 4305 4306 0
-4304 4305 4307 0
-4307 4308 4309 0
-4307 4308 4310 0
-4310 4311 4312 0
-4310 4311 4313 0
-4313 4314 4315 0
-4313 4314 4316 0
-4316 4317 4318 0
-4316 4317 4319 0
-4319 4320 4321 0
-4290 -21 42 43 44 0
-4290 -22 42 44 0
-4290 -23 42 0
-4290 -24 0
-4291 -21 41 0
-4291 -22 43 0
-4291 -23 44 0
-4291 -24 42 0
4275 4276 0
4275 4277 0
-4277 4278 4279 0
-4277 4278 4280 0
-4280 4281 4282 0
-4280 4281 4283 0
-4283 4284 4285 0
-4283 4284 4286 0
-4286 4287 4288 0
-4286 4287 4289 0
-4289 4290 4291 0
-4289 4290 4292 0
-4292 4293 4294 0
-4292 4293 4295 0
-4295 4296 4297 0
-4295 4296 4298 0
-4298 4299 4300 0
-4298 4299 4301 0
-4301 4302 4303 0
-4301 4302 4304 0
-4304 4305 4306 0
-4304 4305 4307 0
-4307 4308 4309 0
-4307 4308 4310 0
-4310 4311 4312 0
-4310 4311 4313 0
-4313 4314 4315 0
-4313 4314 4316 0
-4316 4317 4318 0
-4316 4317 4319 0
-4319 4320 4321 0
-4293 -25 46 47 48 0
-4293 -26 46 48 0
-4293 -27 46 0
-4293 -28 0
-4294 -25 45 0
-4294 -26 47 0
-4294 -27 48 0
-4294 -28 46 0
4275 4276 0
4275 4277 0
-4277 4278 4279 0
-4277 4278 4280 0
-4280 4281 4282 0
-4280 4281 4283 0
-4283 4284 4285 0
-4283 4284 4286 0
-4286 4287 4288 0
-4286 4287 4289 0
-4289 4290 4291 0
-4289 4290 4292 0
-4292 4293 4294 0
-4292 4293 4295 0
-4295 4296 4297 0
-4295 4296 4298 0
-4298 4299 4300 0
-4298 4299 4301 0
-4301 4302 4303 0
-4301 4302 4304 0
-4304 4305 4306 0
-4304 4305 4307 0
-4307 4308 4309 0
-4307 4308 4310 0
-4310 4311 4312 0
-4310 4311 4313 0
-4313 4314 4315 0
-4313 4314 4316 0
-4316 4317 4318 0
-4316 4317 4319 0
-4319 4320 4321 0
-4296 -29 38 39 40 0
-4296 -30 38 40 0
-4296 -31 38 0
-4296 -32 0
-4297 -29 37 0
-4297 -30 39 0
-4297 -31 40 0
-4297 -32 38 0
4275 4276 0
4275 4277 0
-4277 4278 4279 0
-4277 4278 4280 0
-4280 4281 4282 0
-4280 4281 4283 0
-4283 4284 4285 0
-4283 4284 4286 0
-4286 4287 4288 0
-4286 4287 4289 0
-4289 4290 4291 0
-4289 4290 4292 0
-4292 4293 4294 0
-4292 4293 4295 0
-4295 4296 4297 0
-4295 4296 4298 0
-4298 4299 4300 0
-4298 4299 4301 0
-4301 4302 4303 0
-4301 4302 4304 0
-4304 4305 4306 0
-4304 4305 4307 0
-4307 4308 4309 0
-4307 4308 4310 0
-4310 4311 4312 0
-4310 4311 4313 0
-4313 4314 4315 0
-4313 4314 4316 0
-4316 4317 4318 0
-4316 4317 4319 0
-4319 4320 4321 0
-4299 -33 50 51 52 0
-4299 -34 50 52 0
-4299 -35 50 0
-4299 -36 0
-4300 -33 49 0
-4300 -34 51 0
-4300 -35 52 0
-4300 -36 50 0
4275 4276 0
4275 4277 0
-4277 4278 4279 0
-4277 4278 4280 0
-4280 4281 4282 0
-4280 4281 4283 0
-4283 4284 4285 0
-4283 4284 4286 0
-4286 4287 4288 0
-4286 4287 4289 0
-4289 4290 4291 0
-4289 4290 4292 0
-4292 4293 4294 0
-4292 4293 4295 0
-4295 4296 4297 0
-4295 4296 4298 0
-4298 4299 4300 0
-4298 4299 4301 0
-4301 4302 4303 0
-4301 4302 4304 0
-4304 4305 4306 0
-4304 4305 4307 0
-4307 4308 4309 0
-4307 4308 4310 0
-4310 4311 4312 0
-4310 4311 4313 0
-4313 4314 4315 0
-4313 4314 4316 0
-4316 4317 4318 0
-4316 4317 4319 0
-4319 4320 4321 0
-4302 -37 58 59 60 0
-4302 -38 58 60 0
-4302 -39 58 0
-4302 -40 0
-4303 -37 57 0
-4303 -38 59 0
-4303 -39 60 0
-4303 -40 58 0
4275 4276 0
4275 4277 0
-4277 4278 4279 0
-4277 4278 4280 0
-4280 4281 4282 0
-4280 4281 4283 0
-4283 4284 4285 0
-4283 4284 4286 0
-4286 4287 4288 0
-4286 4287 4289 0
-4289 4290 4291 0
-4289 4290 4292 0
-4292 4293 4294 0
-4292 4293 4295 0
-4295 4296 4297 0
-4295 4296 4298 0
-4298 4299 4300 0
-4298 4299 4301 0
-4301 4302 4303 0
-4301 4302 4304 0
-4304 4305 4306 0
-4304 4305 4307 0
-4307 4308 4309 0
-4307 4308 4310 0
-4310 4311 4312 0
-4310 4311 4313 0
-4313 4314 4315 0
-4313 4314 4316 0
-4316 4317 4318 0
-4316 4317 4319 0
-4319 4320 4321 0
-4305 -41 62 63 64 0
-4305 -42 62 64 0
-4305 -43 62 0
-4305 -44 0
-4306 -41 61 0
-4306 -42 63 0
-4306 -43 64 0
-4306 -44 62 0
4275 4276 0
4275 4277 0
-4277 4278 4279 0
-4277 4278 4280 0
-4280 4281 4282 0
-4280 4281 4283 0
-4283 4284 4285 0
-4283 4284 4286 0
-4286 4287 4288 0
-4286 4287 4289 0
-4289 4290 4291 0
-4289 4290 4292 0
-4292 4293 4294 0
-4292 4293 4295 0
-4295 4296 4297 0
-4295 4296 4298 0
-4298 4299 4300 0
-4298 4299 4301 0
-4301 4302 4303 0
-4301 4302 4304 0
-4304 4305 4306 0
-4304 4305 4307 0
-4307 4308 4309 0
-4307 4308 4310 0
-4310 4311 4312 0
-4310 4311 4313 0
-4313 4314 4315 0
-4313 4314 4316 0
-4316 4317 4318 0
-4316 4317 4319 0
-4319 4320 4321 0
-4308 -45 54 55 56 0
-4308 -46 54 56 0
-4308 -47 54 0
-4308 -48 0
-4309 -45 53 0
-4309 -46 55 0
-4309 -47 56 0
-4309 -48 54 0
4275 4276 0
4275 4277 0
-4277 4278 4279 0
-4277 4278 4280 0
-4280 4281 4282 0
-4280 4281 4283 0
-4283 4284 4285 0
-4283 4284 4286 0
-4286 4287 4288 0
-4286 4287 4289 0
-4289 4290 4291 0
-4289 4290 4292 0
-4292 4293 4294 0
-4292 4293 4295 0
-4295 4296 4297 0
-4295 4296 4298 0
-4298 4299 4300 0
-4298 4299 4301 0
-4301 4302 4303 0
-4301 4302 4304 0
-4304 4305 4306 0
-4304 4305 4307 0
-4307 4308 4309 0
-4307 4308 4310 0
-4310 4311 4312 0
-4310 4311 4313 0
-4313 4314 4315 0
-4313 4314 4316 0
-4316 4317 4318 0
-4316 4317 4319 0
-4319 4320 4321 0
-4311 -49 18 19 20 0
-4311 -50 18 20 0
-4311 -51 18 0
-4311 -52 0
-4312 -49 17 0
-4312 -50 19 0
-4312 -51 20 0
-4312 -52 18 0
4275 4276 0
4275 4277 0
-4277 4278 4279 0
-4277 4278 4280 0
-4280 4281 4282 0
-4280 4281 4283 0
-4283 4284 4285 0
-4283 4284 4286 0
-4286 4287 4288 0
-4286 4287 4289 0
-4289 4290 4291 0
-4289 4290 4292 0
-4292 4293 4294 0
-4292 4293 4295 0
-4295 4296 4297 0
-4295 4296 4298 0
-4298 4299 4300 0
-4298 4299 4301 0
-4301 4302 4303 0
-4301 4302 4304 0
-4304 4305 4306 0
-4304 4305 4307 0
-4307 4308 4309 0
-4307 4308 4310 0
-4310 4311 4312 0
-4310 4311 4313 0
-4313 4314 4315 0
-4313 4314 4316 0
-4316 4317 4318 0
-4316 4317 4319 0
-4319 4320 4321 0
-4314 -53 26 27 28 0
-4314 -54 26 28 0
-4314 -55 26 0
-4314 -56 0
-4315 -53 25 0
-4315 -54 27 0
-4315 -55 28 0
-4315 -56 26 0
4275 4276 0
4275 4277 0
-4277 4278 4279 0
-4277 4278 4280 0
-4280 4281 4282 0
-4280 4281 4283 0
-4283 4284 4285 0
-4283 4284 4286 0
-4286 4287 4288 0
-4286 4287 4289 0
-4289 4290 4291 0
-4289 4290 4292 0
-4292 4293 4294 0
-4292 4293 4295 0
-4295 4296 4297 0
-4295 4296 4298 0
-4298 4299 4300 0
-4298 4299 4301 0
-4301 4302 4303 0
-4301 4302 4304 0
-4304 4305 4306 0
-4304 4305 4307 0
-4307 4308 4309 0
-4307 4308 4310 0
-4310 4311 4312 0
-4310 4311 4313 0
-4313 4314 4315 0
-4313 4314 4316 0
-4316 4317 4318 0
-4316 4317 4319 0
-4319 4320 4321 0
-4317 -57 30 31 32 0
-4317 -58 30 32 0
-4317 -59 30 0
-4317 -60 0
-4318 -57 29 0
-4318 -58 31 0
-4318 -59 32 0
-4318 -60 30 0
4275 4276 0
4275 4277 0
-4277 4278 4279 0
-4277 4278 4280 0
-4280 4281 4282 0
-4280 4281 4283 0
-4283 4284 4285 0
-4283 4284 4286 0
-4286 4287 4288 0
-4286 4287 4289 0
-4289 4290 4291 0
-4289 4290 4292 0
-4292 4293 4294 0
-4292 4293 4295 0
-4295 4296 4297 0
-4295 4296 4298 0
-4298 4299 4300 0
-4298 4299 4301 0
-4301 4302 4303 0
-4301 4302 4304 0
-4304 4305 4306 0
-4304 4305 4307 0
-4307 4308 4309 0
-4307 4308 4310 0
-4310 4311 4312 0
-4310 4311 4313 0
-4313 4314 4315 0
-4313 4314 4316 0
-4316 4317 4318 0
-4316 4317 4319 0
-4319 4320 4321 0
-4320 -61 22 23 24 0
-4320 -62 22 24 0
-4320 -63 22 0
-4320 -64 0
-4321 -61 21 0
-4321 -62 23 0
-4321 -63 24 0
-4321 -64 22 0
4275 4276 0
4275 4277 0
-4277 4278 4279 0
-4277 4278 4280 0
-4280 4281 4282 0
-4280 4281 4283 0
-4283 4284 4285 0
-4283 4284 4286 0
-4286 4287 4288 0
-4286 4287 4289 0
-4289 4290 4291 0
-4289 4290 4292 0
-4292 4293 4294 0
-4292 4293 4295 0
-4295 4296 4297 0
-4295 4296 4298 0
-4298 4299 4300 0
-4298 4299 4301 0
-4301 4302 4303 0
-4301 4302 4304 0
-4304 4305 4306 0
-4304 4305 4307 0
-4307 4308 4309 0
-4307 4308 4310 0
-4310 4311 4312 0
-4310 4311 4313 0
-4313 4314 4315 0
-4313 4314 4316 0
-4316 4317 4318 0
-4316 4317 4319 0
-4319 4320 4321 0
